generated by phonopy                    
   1.00000000000000     
    15.6250000000000000    0.0000000000000000    0.0000000000000000
    -7.8125000000000000   13.5316469339999994    0.0000000000000000
     0.0000000000000000    0.0000000000000000   20.0000000000000000
   Mo   S    Pt
    25    50     1
Direct
  0.0665268074212391  0.1329242967838436  0.1857954241137430
  0.2663974871626036  0.1329242967838436  0.1857954241137430
  0.4666605987187988  0.1333393798812044  0.1859972458481031
  0.6666655489946723  0.1333311001893527  0.1859880065279614
  0.8666787789624046  0.1333393798812044  0.1859972458481031
  0.0665268074212391  0.3336024914373925  0.1857954241137430
  0.2666666587999984  0.3333333197999977  0.1835141940530845
  0.4670756818161596  0.3336024914373925  0.1857954241137430
  0.6666369649061313  0.3333121866361617  0.1859925910209409
  0.8666752195300295  0.3333121866361617  0.1859925910209409
  0.0666544387962767  0.5333455398037265  0.1860259247629260
  0.2663974871626036  0.5334731711787641  0.1857954241137430
  0.4670756818161596  0.5334731711787641  0.1857954241137430
  0.6666910988074490  0.5333455398037265  0.1860259247629260
  0.8666698826150359  0.5333397674300726  0.1859979063932901
  0.0666602111699306  0.7333300959849673  0.1859979063932901
  0.2666877919638344  0.7333247590699737  0.1859925910209409
  0.4666605987187988  0.7333211996375986  0.1859972458481031
  0.6666369649061313  0.7333247590699737  0.1859925910209409
  0.8666698826150359  0.7333300959849673  0.1859979063932901
  0.0666544387962767  0.9333088797925471  0.1860259247629260
  0.2666877919638344  0.9333630136938648  0.1859925910209409
  0.4666688784106505  0.9333344296053238  0.1859880065279614
  0.6666655489946723  0.9333344296053238  0.1859880065279614
  0.8666752195300295  0.9333630136938648  0.1859925910209409
  0.1333175423667966  0.0666350697335856  0.1068667490151413
  0.3333551525490271  0.0666678118071907  0.1068762042024333
  0.5333313266220665  0.0666686705779347  0.1068875831845493
  0.7333373589558687  0.0666686705779347  0.1068875831845493
  0.9333126742581641  0.0666678118071907  0.1068762042024333
  0.1334739503717293  0.2667369662858650  0.1070255699642415
  0.3332630309141362  0.2667369662858650  0.1070255699642415
  0.5333321853928106  0.2666448446509741  0.1068762042024333
  0.7333326700072673  0.2666653250145412  0.1068932692421800
  0.9333126742581641  0.2666448446509741  0.1068762042024333
  0.1333175423667966  0.4666824548332046  0.1068667490151413
  0.3332630309141362  0.4665260468282720  0.1070255699642415
  0.5333649274664156  0.4666824548332046  0.1068667490151413
  0.7333115706160988  0.4666653667922266  0.1068835237337407
  0.9333538111761285  0.4666653667922266  0.1068835237337407
  0.1333346304077746  0.6666461860238727  0.1068835237337407
  0.3333551525490271  0.6666873229418371  0.1068762042024333
  0.5333321853928106  0.6666873229418371  0.1068762042024333
  0.7333115706160988  0.6666461860238727  0.1068835237337407
  0.9333333374000006  0.6666666598000006  0.1068885712911291
  0.1333346304077746  0.8666884265839024  0.1068835237337407
  0.3333346721854600  0.8666673271927339  0.1068932692421800
  0.5333313266220665  0.8666626382441325  0.1068875831845493
  0.7333326700072673  0.8666673271927339  0.1068932692421800
  0.9333538111761285  0.8666884265839024  0.1068835237337407
  0.1333649002509110  0.0667297855018144  0.2650457984610996
  0.3333453136205834  0.0666694535361826  0.2651189808544378
  0.5333334041676244  0.0666665930323768  0.2650874573303567
  0.7333332038647529  0.0666665930323768  0.2650874573303567
  0.9333241549155996  0.0666694535361826  0.2651189808544378
  0.1269710441199959  0.2634855131599983  0.2645046812275648
  0.3365144840400028  0.2634855131599983  0.2645046812275648
  0.5333305436638186  0.2666546835794177  0.2651189808544378
  0.7333328584609085  0.2666657019218236  0.2650846009167521
  0.9333241549155996  0.2666546835794177  0.2651189808544378
  0.1333649002509110  0.4666350969490902  0.2650457984610996
  0.3365144840400029  0.4730289530800053  0.2645046812275648
  0.5332702116981869  0.4666350969490902  0.2650457984610996
  0.7333395221826040  0.4666638390105129  0.2650811824818246
  0.9333243318279094  0.4666638390105129  0.2650811824818246
  0.1333361581894883  0.6666756653720918  0.2650811824818246
  0.3333453136205834  0.6666758422844016  0.2651189808544378
  0.5333305436638186  0.6666758422844016  0.2651189808544378
  0.7333395221826040  0.6666756653720918  0.2650811824818246
  0.9333333374000006  0.6666666598000006  0.2650829589431600
  0.1333361581894883  0.8666604750173972  0.2650811824818246
  0.3333342952781776  0.8666671387390927  0.2650846009167521
  0.5333334041676244  0.8666667933352483  0.2650874573303567
  0.7333328584609085  0.8666671387390927  0.2650846009167521
  0.9333243318279094  0.8666604750173972  0.2650811824818246
  0.2666666587999984  0.3333333197999977  0.3283483566474081
 
  0.00000000E+00  0.00000000E+00  0.00000000E+00
  0.00000000E+00  0.00000000E+00  0.00000000E+00
  0.00000000E+00  0.00000000E+00  0.00000000E+00
  0.00000000E+00  0.00000000E+00  0.00000000E+00
  0.00000000E+00  0.00000000E+00  0.00000000E+00
  0.00000000E+00  0.00000000E+00  0.00000000E+00
  0.00000000E+00  0.00000000E+00  0.00000000E+00
  0.00000000E+00  0.00000000E+00  0.00000000E+00
  0.00000000E+00  0.00000000E+00  0.00000000E+00
  0.00000000E+00  0.00000000E+00  0.00000000E+00
  0.00000000E+00  0.00000000E+00  0.00000000E+00
  0.00000000E+00  0.00000000E+00  0.00000000E+00
  0.00000000E+00  0.00000000E+00  0.00000000E+00
  0.00000000E+00  0.00000000E+00  0.00000000E+00
  0.00000000E+00  0.00000000E+00  0.00000000E+00
  0.00000000E+00  0.00000000E+00  0.00000000E+00
  0.00000000E+00  0.00000000E+00  0.00000000E+00
  0.00000000E+00  0.00000000E+00  0.00000000E+00
  0.00000000E+00  0.00000000E+00  0.00000000E+00
  0.00000000E+00  0.00000000E+00  0.00000000E+00
  0.00000000E+00  0.00000000E+00  0.00000000E+00
  0.00000000E+00  0.00000000E+00  0.00000000E+00
  0.00000000E+00  0.00000000E+00  0.00000000E+00
  0.00000000E+00  0.00000000E+00  0.00000000E+00
  0.00000000E+00  0.00000000E+00  0.00000000E+00
  0.00000000E+00  0.00000000E+00  0.00000000E+00
  0.00000000E+00  0.00000000E+00  0.00000000E+00
  0.00000000E+00  0.00000000E+00  0.00000000E+00
  0.00000000E+00  0.00000000E+00  0.00000000E+00
  0.00000000E+00  0.00000000E+00  0.00000000E+00
  0.00000000E+00  0.00000000E+00  0.00000000E+00
  0.00000000E+00  0.00000000E+00  0.00000000E+00
  0.00000000E+00  0.00000000E+00  0.00000000E+00
  0.00000000E+00  0.00000000E+00  0.00000000E+00
  0.00000000E+00  0.00000000E+00  0.00000000E+00
  0.00000000E+00  0.00000000E+00  0.00000000E+00
  0.00000000E+00  0.00000000E+00  0.00000000E+00
  0.00000000E+00  0.00000000E+00  0.00000000E+00
  0.00000000E+00  0.00000000E+00  0.00000000E+00
  0.00000000E+00  0.00000000E+00  0.00000000E+00
  0.00000000E+00  0.00000000E+00  0.00000000E+00
  0.00000000E+00  0.00000000E+00  0.00000000E+00
  0.00000000E+00  0.00000000E+00  0.00000000E+00
  0.00000000E+00  0.00000000E+00  0.00000000E+00
  0.00000000E+00  0.00000000E+00  0.00000000E+00
  0.00000000E+00  0.00000000E+00  0.00000000E+00
  0.00000000E+00  0.00000000E+00  0.00000000E+00
  0.00000000E+00  0.00000000E+00  0.00000000E+00
  0.00000000E+00  0.00000000E+00  0.00000000E+00
  0.00000000E+00  0.00000000E+00  0.00000000E+00
  0.00000000E+00  0.00000000E+00  0.00000000E+00
  0.00000000E+00  0.00000000E+00  0.00000000E+00
  0.00000000E+00  0.00000000E+00  0.00000000E+00
  0.00000000E+00  0.00000000E+00  0.00000000E+00
  0.00000000E+00  0.00000000E+00  0.00000000E+00
  0.00000000E+00  0.00000000E+00  0.00000000E+00
  0.00000000E+00  0.00000000E+00  0.00000000E+00
  0.00000000E+00  0.00000000E+00  0.00000000E+00
  0.00000000E+00  0.00000000E+00  0.00000000E+00
  0.00000000E+00  0.00000000E+00  0.00000000E+00
  0.00000000E+00  0.00000000E+00  0.00000000E+00
  0.00000000E+00  0.00000000E+00  0.00000000E+00
  0.00000000E+00  0.00000000E+00  0.00000000E+00
  0.00000000E+00  0.00000000E+00  0.00000000E+00
  0.00000000E+00  0.00000000E+00  0.00000000E+00
  0.00000000E+00  0.00000000E+00  0.00000000E+00
  0.00000000E+00  0.00000000E+00  0.00000000E+00
  0.00000000E+00  0.00000000E+00  0.00000000E+00
  0.00000000E+00  0.00000000E+00  0.00000000E+00
  0.00000000E+00  0.00000000E+00  0.00000000E+00
  0.00000000E+00  0.00000000E+00  0.00000000E+00
  0.00000000E+00  0.00000000E+00  0.00000000E+00
  0.00000000E+00  0.00000000E+00  0.00000000E+00
  0.00000000E+00  0.00000000E+00  0.00000000E+00
  0.00000000E+00  0.00000000E+00  0.00000000E+00
  0.00000000E+00  0.00000000E+00  0.00000000E+00
