generated by phonopy                    
   1.00000000000000     
    15.6250000000000000    0.0000000000000000    0.0000000000000000
    -7.8125000000000000   13.5316469339999994    0.0000000000000000
     0.0000000000000000    0.0000000000000000   20.0000000000000000
   Mo   S    Pt
    25    50     1
Direct
  0.0655480019023951  0.1319728799797715  0.1870129211980092
  0.2664248758773826  0.1319728799797715  0.1870129211980092
  0.4668001786965589  0.1331997999034443  0.1853995656437201
  0.6666509412735161  0.1333018847470404  0.1847328200308442
  0.8663996190068773  0.1331997999034443  0.1853995656437201
  0.0655480019023951  0.3335751027226135  0.1870129211980092
  0.2666666587999984  0.3333333197999977  0.1906060649333509
  0.4680270986202318  0.3335751027226135  0.1870129211980092
  0.6669570280588517  0.3332927989386276  0.1849779364285297
  0.8663357686797746  0.3332927989386276  0.1849779364285297
  0.0665726849085896  0.5334272936914136  0.1857257793346781
  0.2664248758773826  0.5344519766976081  0.1870129211980092
  0.4680270986202318  0.5344519766976081  0.1870129211980092
  0.6668546065828235  0.5334272936914136  0.1857257793346781
  0.8666891700907965  0.5333783423815940  0.1850408577198516
  0.0666216362184091  0.7333108085092067  0.1850408577198516
  0.2667071796613685  0.7336642099202286  0.1849779364285297
  0.4668001786965589  0.7336003595931259  0.1853995656437201
  0.6669570280588517  0.7336642099202286  0.1849779364285297
  0.8666891700907965  0.7333108085092067  0.1850408577198516
  0.0665726849085896  0.9331453720171726  0.1857257793346781
  0.2667071796613685  0.9330429505411444  0.1849779364285297
  0.4666980938529627  0.9333490373264800  0.1847328200308442
  0.6666509412735161  0.9333490373264800  0.1847328200308442
  0.8663357686797746  0.9330429505411444  0.1849779364285297
  0.1336566651036133  0.0673133152072188  0.1073626612983495
  0.3330773530855218  0.0672117761891495  0.1064698407008462
  0.5331574803023721  0.0668425168976293  0.1057965372653762
  0.7336850515952651  0.0668425168976293  0.1057965372653762
  0.9341344381036213  0.0672117761891495  0.1064698407008462
  0.1358782065208495  0.2679390943604215  0.1104931037582167
  0.3320609028395797  0.2679390943604215  0.1104931037582167
  0.5327882210108517  0.2669226441144794  0.1064698407008462
  0.7333649659712127  0.2667299169424396  0.1056381207856606
  0.9341344381036213  0.2669226441144794  0.1064698407008462
  0.1336566651036133  0.4663433320963880  0.1073626612983495
  0.3320609028395797  0.4641217906791517  0.1104931037582167
  0.5326866819927824  0.4663433320963880  0.1073626612983495
  0.7331368514258849  0.4668806013340444  0.1060829852331935
  0.9337437649081529  0.4668806013340444  0.1060829852331935
  0.1331193958659570  0.6662562322918483  0.1060829852331935
  0.3330773530855218  0.6658655590963799  0.1064698407008462
  0.5327882210108517  0.6658655590963799  0.1064698407008462
  0.7331368514258849  0.6662562322918483  0.1060829852331935
  0.9333333374000006  0.6666666598000006  0.1059118815767484
  0.1331193958659570  0.8668631457741163  0.1060829852331935
  0.3332700802575616  0.8666350312287885  0.1056381207856606
  0.5331574803023721  0.8663149456047361  0.1057965372653762
  0.7333649659712127  0.8666350312287885  0.1056381207856606
  0.9337437649081529  0.8668631457741163  0.1060829852331935
  0.1327504623593830  0.0655009097187585  0.2656354772300257
  0.3338122555481460  0.0646759464735863  0.2648935407961800
  0.5336317147414115  0.0663682824585898  0.2640175555362282
  0.7327365827171718  0.0663682824585898  0.2640175555362282
  0.9308637059254410  0.0646759464735863  0.2648935407961800
  0.1212801212806303  0.2606400517403154  0.2699134749965328
  0.3393599454596858  0.2606400517403154  0.2699134749965328
  0.5353240507264149  0.2661877416518552  0.2648935407961800
  0.7331967975721937  0.2663935801443866  0.2639670355834341
  0.9308637059254410  0.2661877416518552  0.2648935407961800
  0.1327504623593830  0.4672495348406180  0.2656354772300257
  0.3393599454596858  0.4787198759193708  0.2699134749965328
  0.5344990874812425  0.4672495348406180  0.2656354772300257
  0.7337696673369454  0.4665663627268640  0.2642799141411249
  0.9327967103899191  0.4665663627268640  0.2642799141411249
  0.1334336344731372  0.6672032868100821  0.2642799141411249
  0.3338122555481460  0.6691362912745602  0.2648935407961800
  0.5353240507264149  0.6691362912745602  0.2648935407961800
  0.7337696673369454  0.6672032868100821  0.2642799141411249
  0.9333333374000006  0.6666666598000006  0.2640869393485725
  0.1334336344731372  0.8662303298630558  0.2642799141411249
  0.3336064170556146  0.8668031996278075  0.2639670355834341
  0.5336317147414115  0.8672634144828294  0.2640175555362282
  0.7331967975721937  0.8668031996278075  0.2639670355834341
  0.9327967103899191  0.8662303298630558  0.2642799141411249
  0.2666666587999984  0.3333333197999977  0.3284592136052880
 
  0.00000000E+00  0.00000000E+00  0.00000000E+00
  0.00000000E+00  0.00000000E+00  0.00000000E+00
  0.00000000E+00  0.00000000E+00  0.00000000E+00
  0.00000000E+00  0.00000000E+00  0.00000000E+00
  0.00000000E+00  0.00000000E+00  0.00000000E+00
  0.00000000E+00  0.00000000E+00  0.00000000E+00
  0.00000000E+00  0.00000000E+00  0.00000000E+00
  0.00000000E+00  0.00000000E+00  0.00000000E+00
  0.00000000E+00  0.00000000E+00  0.00000000E+00
  0.00000000E+00  0.00000000E+00  0.00000000E+00
  0.00000000E+00  0.00000000E+00  0.00000000E+00
  0.00000000E+00  0.00000000E+00  0.00000000E+00
  0.00000000E+00  0.00000000E+00  0.00000000E+00
  0.00000000E+00  0.00000000E+00  0.00000000E+00
  0.00000000E+00  0.00000000E+00  0.00000000E+00
  0.00000000E+00  0.00000000E+00  0.00000000E+00
  0.00000000E+00  0.00000000E+00  0.00000000E+00
  0.00000000E+00  0.00000000E+00  0.00000000E+00
  0.00000000E+00  0.00000000E+00  0.00000000E+00
  0.00000000E+00  0.00000000E+00  0.00000000E+00
  0.00000000E+00  0.00000000E+00  0.00000000E+00
  0.00000000E+00  0.00000000E+00  0.00000000E+00
  0.00000000E+00  0.00000000E+00  0.00000000E+00
  0.00000000E+00  0.00000000E+00  0.00000000E+00
  0.00000000E+00  0.00000000E+00  0.00000000E+00
  0.00000000E+00  0.00000000E+00  0.00000000E+00
  0.00000000E+00  0.00000000E+00  0.00000000E+00
  0.00000000E+00  0.00000000E+00  0.00000000E+00
  0.00000000E+00  0.00000000E+00  0.00000000E+00
  0.00000000E+00  0.00000000E+00  0.00000000E+00
  0.00000000E+00  0.00000000E+00  0.00000000E+00
  0.00000000E+00  0.00000000E+00  0.00000000E+00
  0.00000000E+00  0.00000000E+00  0.00000000E+00
  0.00000000E+00  0.00000000E+00  0.00000000E+00
  0.00000000E+00  0.00000000E+00  0.00000000E+00
  0.00000000E+00  0.00000000E+00  0.00000000E+00
  0.00000000E+00  0.00000000E+00  0.00000000E+00
  0.00000000E+00  0.00000000E+00  0.00000000E+00
  0.00000000E+00  0.00000000E+00  0.00000000E+00
  0.00000000E+00  0.00000000E+00  0.00000000E+00
  0.00000000E+00  0.00000000E+00  0.00000000E+00
  0.00000000E+00  0.00000000E+00  0.00000000E+00
  0.00000000E+00  0.00000000E+00  0.00000000E+00
  0.00000000E+00  0.00000000E+00  0.00000000E+00
  0.00000000E+00  0.00000000E+00  0.00000000E+00
  0.00000000E+00  0.00000000E+00  0.00000000E+00
  0.00000000E+00  0.00000000E+00  0.00000000E+00
  0.00000000E+00  0.00000000E+00  0.00000000E+00
  0.00000000E+00  0.00000000E+00  0.00000000E+00
  0.00000000E+00  0.00000000E+00  0.00000000E+00
  0.00000000E+00  0.00000000E+00  0.00000000E+00
  0.00000000E+00  0.00000000E+00  0.00000000E+00
  0.00000000E+00  0.00000000E+00  0.00000000E+00
  0.00000000E+00  0.00000000E+00  0.00000000E+00
  0.00000000E+00  0.00000000E+00  0.00000000E+00
  0.00000000E+00  0.00000000E+00  0.00000000E+00
  0.00000000E+00  0.00000000E+00  0.00000000E+00
  0.00000000E+00  0.00000000E+00  0.00000000E+00
  0.00000000E+00  0.00000000E+00  0.00000000E+00
  0.00000000E+00  0.00000000E+00  0.00000000E+00
  0.00000000E+00  0.00000000E+00  0.00000000E+00
  0.00000000E+00  0.00000000E+00  0.00000000E+00
  0.00000000E+00  0.00000000E+00  0.00000000E+00
  0.00000000E+00  0.00000000E+00  0.00000000E+00
  0.00000000E+00  0.00000000E+00  0.00000000E+00
  0.00000000E+00  0.00000000E+00  0.00000000E+00
  0.00000000E+00  0.00000000E+00  0.00000000E+00
  0.00000000E+00  0.00000000E+00  0.00000000E+00
  0.00000000E+00  0.00000000E+00  0.00000000E+00
  0.00000000E+00  0.00000000E+00  0.00000000E+00
  0.00000000E+00  0.00000000E+00  0.00000000E+00
  0.00000000E+00  0.00000000E+00  0.00000000E+00
  0.00000000E+00  0.00000000E+00  0.00000000E+00
  0.00000000E+00  0.00000000E+00  0.00000000E+00
  0.00000000E+00  0.00000000E+00  0.00000000E+00
  0.00000000E+00  0.00000000E+00  0.00000000E+00
