generated by phonopy                    
   1.00000000000000     
    15.6250000000000000    0.0000000000000000    0.0000000000000000
    -7.8125000000000000   13.5316469339999994    0.0000000000000000
     0.0000000000000000    0.0000000000000000   20.0000000000000000
   Mo   S 
    25    50
Direct
  0.0666666588000027  0.1333333198000020  0.1859879730000031
  0.2666666587999984  0.1333333198000020  0.1859879730000031
  0.4666666588000012  0.1333333198000020  0.1859879730000031
  0.6666666587999970  0.1333333198000020  0.1859879730000031
  0.8666666587999998  0.1333333198000020  0.1859879730000031
  0.0666666588000027  0.3333333197999977  0.1859879730000031
  0.2666666587999984  0.3333333197999977  0.1859879730000031
  0.4666666588000012  0.3333333197999977  0.1859879730000031
  0.6666666587999970  0.3333333197999977  0.1859879730000031
  0.8666666587999998  0.3333333197999977  0.1859879730000031
  0.0666666588000027  0.5333333198000005  0.1859879730000031
  0.2666666587999984  0.5333333198000005  0.1859879730000031
  0.4666666588000012  0.5333333198000005  0.1859879730000031
  0.6666666587999970  0.5333333198000005  0.1859879730000031
  0.8666666587999998  0.5333333198000005  0.1859879730000031
  0.0666666588000027  0.7333333198000034  0.1859879730000031
  0.2666666587999984  0.7333333198000034  0.1859879730000031
  0.4666666588000012  0.7333333198000034  0.1859879730000031
  0.6666666587999970  0.7333333198000034  0.1859879730000031
  0.8666666587999998  0.7333333198000034  0.1859879730000031
  0.0666666588000027  0.9333333197999991  0.1859879730000031
  0.2666666587999984  0.9333333197999991  0.1859879730000031
  0.4666666588000012  0.9333333197999991  0.1859879730000031
  0.6666666587999970  0.9333333197999991  0.1859879730000031
  0.8666666587999998  0.9333333197999991  0.1859879730000031
  0.1333333374000034  0.0666666597999992  0.1068879691472731
  0.3333333373999992  0.0666666597999992  0.1068879691472731
  0.5333333374000020  0.0666666597999992  0.1068879691472731
  0.7333333373999977  0.0666666597999992  0.1068879691472731
  0.9333333374000006  0.0666666597999992  0.1068879691472731
  0.1333333374000034  0.2666666598000020  0.1068879691472731
  0.3333333373999992  0.2666666598000020  0.1068879691472731
  0.5333333374000020  0.2666666598000020  0.1068879691472731
  0.7333333373999977  0.2666666598000020  0.1068879691472731
  0.9333333374000006  0.2666666598000020  0.1068879691472731
  0.1333333374000034  0.4666666597999978  0.1068879691472731
  0.3333333373999992  0.4666666597999978  0.1068879691472731
  0.5333333374000020  0.4666666597999978  0.1068879691472731
  0.7333333373999977  0.4666666597999978  0.1068879691472731
  0.9333333374000006  0.4666666597999978  0.1068879691472731
  0.1333333374000034  0.6666666598000006  0.1068879691472731
  0.3333333373999992  0.6666666598000006  0.1068879691472731
  0.5333333374000020  0.6666666598000006  0.1068879691472731
  0.7333333373999977  0.6666666598000006  0.1068879691472731
  0.9333333374000006  0.6666666598000006  0.1068879691472731
  0.1333333374000034  0.8666666598000035  0.1068879691472731
  0.3333333373999992  0.8666666598000035  0.1068879691472731
  0.5333333374000020  0.8666666598000035  0.1068879691472731
  0.7333333373999977  0.8666666598000035  0.1068879691472731
  0.9333333374000006  0.8666666598000035  0.1068879691472731
  0.1333333374000034  0.0666666597999992  0.2650859748527239
  0.3333333373999992  0.0666666597999992  0.2650859748527239
  0.5333333374000020  0.0666666597999992  0.2650859748527239
  0.7333333373999977  0.0666666597999992  0.2650859748527239
  0.9333333374000006  0.0666666597999992  0.2650859748527239
  0.1333333374000034  0.2666666598000020  0.2650859748527239
  0.3333333373999992  0.2666666598000020  0.2650859748527239
  0.5333333374000020  0.2666666598000020  0.2650859748527239
  0.7333333373999977  0.2666666598000020  0.2650859748527239
  0.9333333374000006  0.2666666598000020  0.2650859748527239
  0.1333333374000034  0.4666666597999978  0.2650859748527239
  0.3333333373999992  0.4666666597999978  0.2650859748527239
  0.5333333374000020  0.4666666597999978  0.2650859748527239
  0.7333333373999977  0.4666666597999978  0.2650859748527239
  0.9333333374000006  0.4666666597999978  0.2650859748527239
  0.1333333374000034  0.6666666598000006  0.2650859748527239
  0.3333333373999992  0.6666666598000006  0.2650859748527239
  0.5333333374000020  0.6666666598000006  0.2650859748527239
  0.7333333373999977  0.6666666598000006  0.2650859748527239
  0.9333333374000006  0.6666666598000006  0.2650859748527239
  0.1333333374000034  0.8666666598000035  0.2650859748527239
  0.3333333373999992  0.8666666598000035  0.2650859748527239
  0.5333333374000020  0.8666666598000035  0.2650859748527239
  0.7333333373999977  0.8666666598000035  0.2650859748527239
  0.9333333374000006  0.8666666598000035  0.2650859748527239
 
  0.00000000E+00  0.00000000E+00  0.00000000E+00
  0.00000000E+00  0.00000000E+00  0.00000000E+00
  0.00000000E+00  0.00000000E+00  0.00000000E+00
  0.00000000E+00  0.00000000E+00  0.00000000E+00
  0.00000000E+00  0.00000000E+00  0.00000000E+00
  0.00000000E+00  0.00000000E+00  0.00000000E+00
  0.00000000E+00  0.00000000E+00  0.00000000E+00
  0.00000000E+00  0.00000000E+00  0.00000000E+00
  0.00000000E+00  0.00000000E+00  0.00000000E+00
  0.00000000E+00  0.00000000E+00  0.00000000E+00
  0.00000000E+00  0.00000000E+00  0.00000000E+00
  0.00000000E+00  0.00000000E+00  0.00000000E+00
  0.00000000E+00  0.00000000E+00  0.00000000E+00
  0.00000000E+00  0.00000000E+00  0.00000000E+00
  0.00000000E+00  0.00000000E+00  0.00000000E+00
  0.00000000E+00  0.00000000E+00  0.00000000E+00
  0.00000000E+00  0.00000000E+00  0.00000000E+00
  0.00000000E+00  0.00000000E+00  0.00000000E+00
  0.00000000E+00  0.00000000E+00  0.00000000E+00
  0.00000000E+00  0.00000000E+00  0.00000000E+00
  0.00000000E+00  0.00000000E+00  0.00000000E+00
  0.00000000E+00  0.00000000E+00  0.00000000E+00
  0.00000000E+00  0.00000000E+00  0.00000000E+00
  0.00000000E+00  0.00000000E+00  0.00000000E+00
  0.00000000E+00  0.00000000E+00  0.00000000E+00
  0.00000000E+00  0.00000000E+00  0.00000000E+00
  0.00000000E+00  0.00000000E+00  0.00000000E+00
  0.00000000E+00  0.00000000E+00  0.00000000E+00
  0.00000000E+00  0.00000000E+00  0.00000000E+00
  0.00000000E+00  0.00000000E+00  0.00000000E+00
  0.00000000E+00  0.00000000E+00  0.00000000E+00
  0.00000000E+00  0.00000000E+00  0.00000000E+00
  0.00000000E+00  0.00000000E+00  0.00000000E+00
  0.00000000E+00  0.00000000E+00  0.00000000E+00
  0.00000000E+00  0.00000000E+00  0.00000000E+00
  0.00000000E+00  0.00000000E+00  0.00000000E+00
  0.00000000E+00  0.00000000E+00  0.00000000E+00
  0.00000000E+00  0.00000000E+00  0.00000000E+00
  0.00000000E+00  0.00000000E+00  0.00000000E+00
  0.00000000E+00  0.00000000E+00  0.00000000E+00
  0.00000000E+00  0.00000000E+00  0.00000000E+00
  0.00000000E+00  0.00000000E+00  0.00000000E+00
  0.00000000E+00  0.00000000E+00  0.00000000E+00
  0.00000000E+00  0.00000000E+00  0.00000000E+00
  0.00000000E+00  0.00000000E+00  0.00000000E+00
  0.00000000E+00  0.00000000E+00  0.00000000E+00
  0.00000000E+00  0.00000000E+00  0.00000000E+00
  0.00000000E+00  0.00000000E+00  0.00000000E+00
  0.00000000E+00  0.00000000E+00  0.00000000E+00
  0.00000000E+00  0.00000000E+00  0.00000000E+00
  0.00000000E+00  0.00000000E+00  0.00000000E+00
  0.00000000E+00  0.00000000E+00  0.00000000E+00
  0.00000000E+00  0.00000000E+00  0.00000000E+00
  0.00000000E+00  0.00000000E+00  0.00000000E+00
  0.00000000E+00  0.00000000E+00  0.00000000E+00
  0.00000000E+00  0.00000000E+00  0.00000000E+00
  0.00000000E+00  0.00000000E+00  0.00000000E+00
  0.00000000E+00  0.00000000E+00  0.00000000E+00
  0.00000000E+00  0.00000000E+00  0.00000000E+00
  0.00000000E+00  0.00000000E+00  0.00000000E+00
  0.00000000E+00  0.00000000E+00  0.00000000E+00
  0.00000000E+00  0.00000000E+00  0.00000000E+00
  0.00000000E+00  0.00000000E+00  0.00000000E+00
  0.00000000E+00  0.00000000E+00  0.00000000E+00
  0.00000000E+00  0.00000000E+00  0.00000000E+00
  0.00000000E+00  0.00000000E+00  0.00000000E+00
  0.00000000E+00  0.00000000E+00  0.00000000E+00
  0.00000000E+00  0.00000000E+00  0.00000000E+00
  0.00000000E+00  0.00000000E+00  0.00000000E+00
  0.00000000E+00  0.00000000E+00  0.00000000E+00
  0.00000000E+00  0.00000000E+00  0.00000000E+00
  0.00000000E+00  0.00000000E+00  0.00000000E+00
  0.00000000E+00  0.00000000E+00  0.00000000E+00
  0.00000000E+00  0.00000000E+00  0.00000000E+00
  0.00000000E+00  0.00000000E+00  0.00000000E+00
