generated by phonopy
   1.0
    15.6250000000000000    0.0000000000000000    0.0000000000000000
    -7.8125000000000000   13.5316469339999994    0.0000000000000000
     0.0000000000000000    0.0000000000000000   20.0000000000000000
Mo S
  25   50
Direct
  0.0666666587999998  0.1333333198000005  0.1859879730000031
  0.2666666587999998  0.1333333198000005  0.1859879730000031
  0.4666666587999999  0.1333333198000005  0.1859879730000031
  0.6666666587999999  0.1333333198000005  0.1859879730000031
  0.8666666587999998  0.1333333198000005  0.1859879730000031
  0.0666666587999998  0.3333333198000006  0.1859879730000031
  0.2666666587999998  0.3333333198000006  0.1859879730000031
  0.4666666587999999  0.3333333198000006  0.1859879730000031
  0.6666666587999999  0.3333333198000006  0.1859879730000031
  0.8666666587999998  0.3333333198000006  0.1859879730000031
  0.0666666587999998  0.5333333198000005  0.1859879730000031
  0.2666666587999998  0.5333333198000005  0.1859879730000031
  0.4666666587999999  0.5333333198000005  0.1859879730000031
  0.6666666587999999  0.5333333198000005  0.1859879730000031
  0.8666666587999998  0.5333333198000005  0.1859879730000031
  0.0666666587999998  0.7333333198000006  0.1859879730000031
  0.2666666587999998  0.7333333198000006  0.1859879730000031
  0.4666666587999999  0.7333333198000006  0.1859879730000031
  0.6666666587999999  0.7333333198000006  0.1859879730000031
  0.8666666587999998  0.7333333198000006  0.1859879730000031
  0.0666666587999998  0.9333333198000006  0.1859879730000031
  0.2666666587999998  0.9333333198000006  0.1859879730000031
  0.4666666587999999  0.9333333198000006  0.1859879730000031
  0.6666666587999999  0.9333333198000006  0.1859879730000031
  0.8666666587999998  0.9333333198000006  0.1859879730000031
  0.1333333374000006  0.0666666598000006  0.1068879691472736
  0.3333333374000006  0.0666666598000006  0.1068879691472736
  0.5333333374000006  0.0666666598000006  0.1068879691472736
  0.7333333374000006  0.0666666598000006  0.1068879691472736
  0.9333333374000006  0.0666666598000006  0.1068879691472736
  0.1333333374000006  0.2666666598000006  0.1068879691472736
  0.3333333374000006  0.2666666598000006  0.1068879691472736
  0.5333333374000006  0.2666666598000006  0.1068879691472736
  0.7333333374000006  0.2666666598000006  0.1068879691472736
  0.9333333374000006  0.2666666598000006  0.1068879691472736
  0.1333333374000006  0.4666666598000007  0.1068879691472736
  0.3333333374000006  0.4666666598000007  0.1068879691472736
  0.5333333374000006  0.4666666598000007  0.1068879691472736
  0.7333333374000006  0.4666666598000007  0.1068879691472736
  0.9333333374000006  0.4666666598000007  0.1068879691472736
  0.1333333374000006  0.6666666598000006  0.1068879691472736
  0.3333333374000006  0.6666666598000006  0.1068879691472736
  0.5333333374000006  0.6666666598000006  0.1068879691472736
  0.7333333374000006  0.6666666598000006  0.1068879691472736
  0.9333333374000006  0.6666666598000006  0.1068879691472736
  0.1333333374000006  0.8666666598000007  0.1068879691472736
  0.3333333374000006  0.8666666598000007  0.1068879691472736
  0.5333333374000006  0.8666666598000007  0.1068879691472736
  0.7333333374000006  0.8666666598000007  0.1068879691472736
  0.9333333374000006  0.8666666598000007  0.1068879691472736
  0.1333333374000006  0.0666666598000006  0.2650859748527233
  0.3333333374000006  0.0666666598000006  0.2650859748527233
  0.5333333374000006  0.0666666598000006  0.2650859748527233
  0.7333333374000006  0.0666666598000006  0.2650859748527233
  0.9333333374000006  0.0666666598000006  0.2650859748527233
  0.1333333374000006  0.2666666598000006  0.2650859748527233
  0.3333333374000006  0.2666666598000006  0.2650859748527233
  0.5333333374000006  0.2666666598000006  0.2650859748527233
  0.7333333374000006  0.2666666598000006  0.2650859748527233
  0.9333333374000006  0.2666666598000006  0.2650859748527233
  0.1333333374000006  0.4666666598000007  0.2650859748527233
  0.3333333374000006  0.4666666598000007  0.2650859748527233
  0.5333333374000006  0.4666666598000007  0.2650859748527233
  0.7333333374000006  0.4666666598000007  0.2650859748527233
  0.9333333374000006  0.4666666598000007  0.2650859748527233
  0.1333333374000006  0.6666666598000006  0.2650859748527233
  0.3333333374000006  0.6666666598000006  0.2650859748527233
  0.5333333374000006  0.6666666598000006  0.2650859748527233
  0.7333333374000006  0.6666666598000006  0.2650859748527233
  0.9333333374000006  0.6666666598000006  0.2650859748527233
  0.1333333374000006  0.8666666598000007  0.2650859748527233
  0.3333333374000006  0.8666666598000007  0.2650859748527233
  0.5333333374000006  0.8666666598000007  0.2650859748527233
  0.7333333374000006  0.8666666598000007  0.2650859748527233
  0.9333333374000006  0.8666666598000007  0.2650859748527233
