K-Point Grid Created by Matt Darby on 30-Nov-2017.
0
Monkhorst-Pack
3  3  1
0. 0. 0.
