generated by phonopy                    
   1.0000000000000000     
    15.6250000000000000    0.0000000000000000    0.0000000000000000
    -7.8125000000000000   13.5316469339999994    0.0000000000000000
     0.0000000000000000    0.0000000000000000   20.0000000000000000
   Mo   S    Pt
    25    50     1
Direct
  0.0655480019023926  0.1319728799797701  0.1870129211980114
  0.2664248758773837  0.1319728799797701  0.1870129211980114
  0.4668001786965590  0.1331997999034442  0.1853995656437206
  0.6666509412735167  0.1333018847470413  0.1847328200308453
  0.8663996190068772  0.1331997999034442  0.1853995656437206
  0.0655480019023926  0.3335751027226124  0.1870129211980114
  0.2666666587999984  0.3333333197999977  0.1906060649333483
  0.4680270986202331  0.3335751027226124  0.1870129211980114
  0.6669570280588530  0.3332927989386292  0.1849779364285311
  0.8663357686797752  0.3332927989386292  0.1849779364285311
  0.0665726849085928  0.5334272936914104  0.1857257793346747
  0.2664248758773837  0.5344519766976106  0.1870129211980114
  0.4680270986202331  0.5344519766976106  0.1870129211980114
  0.6668546065828238  0.5334272936914104  0.1857257793346747
  0.8666891700907939  0.5333783423815959  0.1850408577198550
  0.0666216362184073  0.7333108085092093  0.1850408577198550
  0.2667071796613669  0.7336642099202280  0.1849779364285311
  0.4668001786965590  0.7336003595931260  0.1853995656437206
  0.6669570280588530  0.7336642099202280  0.1849779364285311
  0.8666891700907939  0.7333108085092093  0.1850408577198550
  0.0665726849085928  0.9331453720171723  0.1857257793346747
  0.2667071796613669  0.9330429505411431  0.1849779364285311
  0.4666980938529619  0.9333490373264794  0.1847328200308453
  0.6666509412735167  0.9333490373264794  0.1847328200308453
  0.8663357686797752  0.9330429505411431  0.1849779364285311
  0.1336566651036151  0.0673133152072154  0.1073626612983460
  0.3330773530855211  0.0672117761891471  0.1064698407008464
  0.5331574803023713  0.0668425168976299  0.1057965372653769
  0.7336850515952662  0.0668425168976299  0.1057965372653769
  0.9341344381036194  0.0672117761891471  0.1064698407008464
  0.1358782065208501  0.2679390943604218  0.1104931037582162
  0.3320609028395793  0.2679390943604218  0.1104931037582162
  0.5327882210108541  0.2669226441144801  0.1064698407008464
  0.7333649659712123  0.2667299169424382  0.1056381207856631
  0.9341344381036194  0.2669226441144801  0.1064698407008464
  0.1336566651036151  0.4663433320963861  0.1073626612983460
  0.3320609028395793  0.4641217906791510  0.1104931037582162
  0.5326866819927858  0.4663433320963861  0.1073626612983460
  0.7331368514258827  0.4668806013340472  0.1060829852331935
  0.9337437649081508  0.4668806013340472  0.1060829852331935
  0.1331193958659540  0.6662562322918504  0.1060829852331935
  0.3330773530855211  0.6658655590963818  0.1064698407008464
  0.5327882210108541  0.6658655590963818  0.1064698407008464
  0.7331368514258827  0.6662562322918504  0.1060829852331935
  0.9333333374000006  0.6666666598000006  0.1059118815767519
  0.1331193958659540  0.8668631457741185  0.1060829852331935
  0.3332700802575630  0.8666350312287889  0.1056381207856631
  0.5331574803023713  0.8663149456047350  0.1057965372653769
  0.7333649659712123  0.8666350312287889  0.1056381207856631
  0.9337437649081508  0.8668631457741185  0.1060829852331935
  0.1327504623593825  0.0655009097187573  0.2656354772300276
  0.3338122555481462  0.0646759464735851  0.2648935407961801
  0.5336317147414107  0.0663682824585905  0.2640175555362276
  0.7327365827171732  0.0663682824585905  0.2640175555362276
  0.9308637059254394  0.0646759464735851  0.2648935407961801
  0.1212801212806269  0.2606400517403173  0.2699134749965353
  0.3393599454596838  0.2606400517403173  0.2699134749965353
  0.5353240507264161  0.2661877416518550  0.2648935407961801
  0.7331967975721909  0.2663935801443884  0.2639670355834340
  0.9308637059254394  0.2661877416518550  0.2648935407961801
  0.1327504623593825  0.4672495348406187  0.2656354772300276
  0.3393599454596838  0.4787198759193743  0.2699134749965353
  0.5344990874812439  0.4672495348406187  0.2656354772300276
  0.7337696673369436  0.4665663627268657  0.2642799141411274
  0.9327967103899226  0.4665663627268657  0.2642799141411274
  0.1334336344731355  0.6672032868100786  0.2642799141411274
  0.3338122555481462  0.6691362912745618  0.2648935407961801
  0.5353240507264161  0.6691362912745618  0.2648935407961801
  0.7337696673369436  0.6672032868100786  0.2642799141411274
  0.9333333374000006  0.6666666598000006  0.2640869393485730
  0.1334336344731355  0.8662303298630576  0.2642799141411274
  0.3336064170556128  0.8668031996278103  0.2639670355834340
  0.5336317147414107  0.8672634144828280  0.2640175555362276
  0.7331967975721909  0.8668031996278103  0.2639670355834340
  0.9327967103899226  0.8662303298630576  0.2642799141411274
  0.2666666587999984  0.3333333197999977  0.3284592136052851

  0.00000000E+00  0.00000000E+00  0.00000000E+00
  0.00000000E+00  0.00000000E+00  0.00000000E+00
  0.00000000E+00  0.00000000E+00  0.00000000E+00
  0.00000000E+00  0.00000000E+00  0.00000000E+00
  0.00000000E+00  0.00000000E+00  0.00000000E+00
  0.00000000E+00  0.00000000E+00  0.00000000E+00
  0.00000000E+00  0.00000000E+00  0.00000000E+00
  0.00000000E+00  0.00000000E+00  0.00000000E+00
  0.00000000E+00  0.00000000E+00  0.00000000E+00
  0.00000000E+00  0.00000000E+00  0.00000000E+00
  0.00000000E+00  0.00000000E+00  0.00000000E+00
  0.00000000E+00  0.00000000E+00  0.00000000E+00
  0.00000000E+00  0.00000000E+00  0.00000000E+00
  0.00000000E+00  0.00000000E+00  0.00000000E+00
  0.00000000E+00  0.00000000E+00  0.00000000E+00
  0.00000000E+00  0.00000000E+00  0.00000000E+00
  0.00000000E+00  0.00000000E+00  0.00000000E+00
  0.00000000E+00  0.00000000E+00  0.00000000E+00
  0.00000000E+00  0.00000000E+00  0.00000000E+00
  0.00000000E+00  0.00000000E+00  0.00000000E+00
  0.00000000E+00  0.00000000E+00  0.00000000E+00
  0.00000000E+00  0.00000000E+00  0.00000000E+00
  0.00000000E+00  0.00000000E+00  0.00000000E+00
  0.00000000E+00  0.00000000E+00  0.00000000E+00
  0.00000000E+00  0.00000000E+00  0.00000000E+00
  0.00000000E+00  0.00000000E+00  0.00000000E+00
  0.00000000E+00  0.00000000E+00  0.00000000E+00
  0.00000000E+00  0.00000000E+00  0.00000000E+00
  0.00000000E+00  0.00000000E+00  0.00000000E+00
  0.00000000E+00  0.00000000E+00  0.00000000E+00
  0.00000000E+00  0.00000000E+00  0.00000000E+00
  0.00000000E+00  0.00000000E+00  0.00000000E+00
  0.00000000E+00  0.00000000E+00  0.00000000E+00
  0.00000000E+00  0.00000000E+00  0.00000000E+00
  0.00000000E+00  0.00000000E+00  0.00000000E+00
  0.00000000E+00  0.00000000E+00  0.00000000E+00
  0.00000000E+00  0.00000000E+00  0.00000000E+00
  0.00000000E+00  0.00000000E+00  0.00000000E+00
  0.00000000E+00  0.00000000E+00  0.00000000E+00
  0.00000000E+00  0.00000000E+00  0.00000000E+00
  0.00000000E+00  0.00000000E+00  0.00000000E+00
  0.00000000E+00  0.00000000E+00  0.00000000E+00
  0.00000000E+00  0.00000000E+00  0.00000000E+00
  0.00000000E+00  0.00000000E+00  0.00000000E+00
  0.00000000E+00  0.00000000E+00  0.00000000E+00
  0.00000000E+00  0.00000000E+00  0.00000000E+00
  0.00000000E+00  0.00000000E+00  0.00000000E+00
  0.00000000E+00  0.00000000E+00  0.00000000E+00
  0.00000000E+00  0.00000000E+00  0.00000000E+00
  0.00000000E+00  0.00000000E+00  0.00000000E+00
  0.00000000E+00  0.00000000E+00  0.00000000E+00
  0.00000000E+00  0.00000000E+00  0.00000000E+00
  0.00000000E+00  0.00000000E+00  0.00000000E+00
  0.00000000E+00  0.00000000E+00  0.00000000E+00
  0.00000000E+00  0.00000000E+00  0.00000000E+00
  0.00000000E+00  0.00000000E+00  0.00000000E+00
  0.00000000E+00  0.00000000E+00  0.00000000E+00
  0.00000000E+00  0.00000000E+00  0.00000000E+00
  0.00000000E+00  0.00000000E+00  0.00000000E+00
  0.00000000E+00  0.00000000E+00  0.00000000E+00
  0.00000000E+00  0.00000000E+00  0.00000000E+00
  0.00000000E+00  0.00000000E+00  0.00000000E+00
  0.00000000E+00  0.00000000E+00  0.00000000E+00
  0.00000000E+00  0.00000000E+00  0.00000000E+00
  0.00000000E+00  0.00000000E+00  0.00000000E+00
  0.00000000E+00  0.00000000E+00  0.00000000E+00
  0.00000000E+00  0.00000000E+00  0.00000000E+00
  0.00000000E+00  0.00000000E+00  0.00000000E+00
  0.00000000E+00  0.00000000E+00  0.00000000E+00
  0.00000000E+00  0.00000000E+00  0.00000000E+00
  0.00000000E+00  0.00000000E+00  0.00000000E+00
  0.00000000E+00  0.00000000E+00  0.00000000E+00
  0.00000000E+00  0.00000000E+00  0.00000000E+00
  0.00000000E+00  0.00000000E+00  0.00000000E+00
  0.00000000E+00  0.00000000E+00  0.00000000E+00
  0.00000000E+00  0.00000000E+00  0.00000000E+00
