generated by phonopy                    
   1.00000000000000     
    15.6250000000000000    0.0000000000000000    0.0000000000000000
    -7.8125000000000000   13.5316469339999994    0.0000000000000000
     0.0000000000000000    0.0000000000000000   20.0000000000000000
   Mo   S    Pt
    25    50     1
Direct
  0.0664625631351254  0.1333489039176525  0.1861769459401600
  0.2668863385825261  0.1333489039176525  0.1861769459401600
  0.4666833849054251  0.1333028268721814  0.1863327514955999
  0.6666666587999970  0.1333333198000020  0.1862855643841780
  0.8666194397667550  0.1333028268721814  0.1863327514955999
  0.0667794856797530  0.3333897332398729  0.1863075823330668
  0.2659083533102095  0.3318167088204127  0.1856264693232353
  0.4666102453601261  0.3333897332398729  0.1863075823330668
  0.6666971517278173  0.3333165936945738  0.1863327514955999
  0.8666194397667550  0.3333165936945738  0.1863327514955999
  0.0664625631351254  0.5331136400174724  0.1861769459401600
  0.2659083533102095  0.5340916252897892  0.1856264693232353
  0.4681832697795862  0.5340916252897892  0.1856264693232353
  0.6666510746823465  0.5331136400174724  0.1861769459401600
  0.8666718256542003  0.5333436535084020  0.1862379104130703
  0.0666623204086517  0.7333376581913543  0.1861148887212845
  0.2668863385825261  0.7335374154648807  0.1861769459401600
  0.4666102453601261  0.7332204929202530  0.1863075823330668
  0.6666510746823465  0.7335374154648807  0.1861769459401600
  0.8666753355827085  0.7333376581913543  0.1861148887212845
  0.0666623204086517  0.9333246430172905  0.1861148887212845
  0.2666563250915970  0.9333281529457986  0.1862379104130703
  0.4666833849054251  0.9333805388332439  0.1863327514955999
  0.6666971517278173  0.9333805388332439  0.1863327514955999
  0.8666718256542003  0.9333281529457986  0.1862379104130703
  0.1334024720501908  0.0668049291003738  0.1071253597759963
  0.3334669618504153  0.0666312596746175  0.1071792273902712
  0.5333268800475586  0.0666634311237810  0.1071923543304193
  0.7333365660762160  0.0666634311237810  0.1071923543304193
  0.9331643128242028  0.0666312596746175  0.1071792273902712
  0.1324393249816230  0.2661495136155663  0.1067584266948705
  0.3337102036339437  0.2661495136155663  0.1067584266948705
  0.5333531737060156  0.2666468234939883  0.1072736986709314
  0.7333365660762160  0.2666731171524455  0.1071923543304193
  0.9332936647879732  0.2666468234939883  0.1072736986709314
  0.1324393249816230  0.4662897935660532  0.1067584266948705
  0.3333333373999992  0.4666666597999978  0.1073904595332573
  0.5338504835844379  0.4662897935660532  0.1067584266948705
  0.7333687375253796  0.4665330353495816  0.1071792273902712
  0.9331643128242028  0.4665330353495816  0.1071792273902712
  0.1334024720501908  0.6665975251498135  0.1071253597759963
  0.3337102036339437  0.6675606722183809  0.1067584266948705
  0.5338504835844379  0.6675606722183809  0.1067584266948705
  0.7331950680996232  0.6665975251498135  0.1071253597759963
  0.9332873805532261  0.6665747461064523  0.1070416433717999
  0.1334252510935522  0.8667126166467779  0.1070416433717999
  0.3334669618504153  0.8668356843758013  0.1071792273902712
  0.5333531737060156  0.8667063324120309  0.1072736986709314
  0.7333687375253796  0.8668356843758013  0.1071792273902712
  0.9332873805532261  0.8667126166467779  0.1070416433717999
  0.1333354353339979  0.0666708556679882  0.2652313839853188
  0.3333237333886327  0.0666226724868839  0.2653681789591424
  0.5333996706687373  0.0666998264343669  0.2654116685565300
  0.7333001707656300  0.0666998264343669  0.2654116685565300
  0.9332989540982518  0.0666226724868839  0.2653681789591424
  0.1335835166253012  0.2666372147752623  0.2652879673141469
  0.3330537131499618  0.2666372147752623  0.2652879673141469
  0.5332725671679425  0.2667274300320616  0.2654348682976176
  0.7333001707656300  0.2666003265312739  0.2654116685565300
  0.9334548778641196  0.2667274300320616  0.2654348682976176
  0.1335835166253012  0.4669462840500351  0.2652879673141469
  0.3333333373999992  0.4666666597999978  0.2630176115816178
  0.5333627824247417  0.4669462840500351  0.2652879673141469
  0.7333773247131127  0.4666762638113642  0.2653681789591424
  0.9332989540982518  0.4666762638113642  0.2653681789591424
  0.1333354353339979  0.6666645618660061  0.2652313839853188
  0.3330537131499618  0.6664164805747029  0.2652879673141469
  0.5333627824247417  0.6664164805747029  0.2652879673141469
  0.7333291415320090  0.6666645618660061  0.2652313839853188
  0.9333763320867738  0.6667526491735546  0.2652357750629826
  0.1332473480264495  0.8666236651132302  0.2652357750629826
  0.3333237333886327  0.8667010431017522  0.2653681789591424
  0.5332725671679425  0.8665451193358844  0.2654348682976176
  0.7333773247131127  0.8667010431017522  0.2653681789591424
  0.9333763320867738  0.8666236651132302  0.2652357750629826
  0.3333333373999992  0.4666666597999978  0.3671184690590649
 
  0.00000000E+00  0.00000000E+00  0.00000000E+00
  0.00000000E+00  0.00000000E+00  0.00000000E+00
  0.00000000E+00  0.00000000E+00  0.00000000E+00
  0.00000000E+00  0.00000000E+00  0.00000000E+00
  0.00000000E+00  0.00000000E+00  0.00000000E+00
  0.00000000E+00  0.00000000E+00  0.00000000E+00
  0.00000000E+00  0.00000000E+00  0.00000000E+00
  0.00000000E+00  0.00000000E+00  0.00000000E+00
  0.00000000E+00  0.00000000E+00  0.00000000E+00
  0.00000000E+00  0.00000000E+00  0.00000000E+00
  0.00000000E+00  0.00000000E+00  0.00000000E+00
  0.00000000E+00  0.00000000E+00  0.00000000E+00
  0.00000000E+00  0.00000000E+00  0.00000000E+00
  0.00000000E+00  0.00000000E+00  0.00000000E+00
  0.00000000E+00  0.00000000E+00  0.00000000E+00
  0.00000000E+00  0.00000000E+00  0.00000000E+00
  0.00000000E+00  0.00000000E+00  0.00000000E+00
  0.00000000E+00  0.00000000E+00  0.00000000E+00
  0.00000000E+00  0.00000000E+00  0.00000000E+00
  0.00000000E+00  0.00000000E+00  0.00000000E+00
  0.00000000E+00  0.00000000E+00  0.00000000E+00
  0.00000000E+00  0.00000000E+00  0.00000000E+00
  0.00000000E+00  0.00000000E+00  0.00000000E+00
  0.00000000E+00  0.00000000E+00  0.00000000E+00
  0.00000000E+00  0.00000000E+00  0.00000000E+00
  0.00000000E+00  0.00000000E+00  0.00000000E+00
  0.00000000E+00  0.00000000E+00  0.00000000E+00
  0.00000000E+00  0.00000000E+00  0.00000000E+00
  0.00000000E+00  0.00000000E+00  0.00000000E+00
  0.00000000E+00  0.00000000E+00  0.00000000E+00
  0.00000000E+00  0.00000000E+00  0.00000000E+00
  0.00000000E+00  0.00000000E+00  0.00000000E+00
  0.00000000E+00  0.00000000E+00  0.00000000E+00
  0.00000000E+00  0.00000000E+00  0.00000000E+00
  0.00000000E+00  0.00000000E+00  0.00000000E+00
  0.00000000E+00  0.00000000E+00  0.00000000E+00
  0.00000000E+00  0.00000000E+00  0.00000000E+00
  0.00000000E+00  0.00000000E+00  0.00000000E+00
  0.00000000E+00  0.00000000E+00  0.00000000E+00
  0.00000000E+00  0.00000000E+00  0.00000000E+00
  0.00000000E+00  0.00000000E+00  0.00000000E+00
  0.00000000E+00  0.00000000E+00  0.00000000E+00
  0.00000000E+00  0.00000000E+00  0.00000000E+00
  0.00000000E+00  0.00000000E+00  0.00000000E+00
  0.00000000E+00  0.00000000E+00  0.00000000E+00
  0.00000000E+00  0.00000000E+00  0.00000000E+00
  0.00000000E+00  0.00000000E+00  0.00000000E+00
  0.00000000E+00  0.00000000E+00  0.00000000E+00
  0.00000000E+00  0.00000000E+00  0.00000000E+00
  0.00000000E+00  0.00000000E+00  0.00000000E+00
  0.00000000E+00  0.00000000E+00  0.00000000E+00
  0.00000000E+00  0.00000000E+00  0.00000000E+00
  0.00000000E+00  0.00000000E+00  0.00000000E+00
  0.00000000E+00  0.00000000E+00  0.00000000E+00
  0.00000000E+00  0.00000000E+00  0.00000000E+00
  0.00000000E+00  0.00000000E+00  0.00000000E+00
  0.00000000E+00  0.00000000E+00  0.00000000E+00
  0.00000000E+00  0.00000000E+00  0.00000000E+00
  0.00000000E+00  0.00000000E+00  0.00000000E+00
  0.00000000E+00  0.00000000E+00  0.00000000E+00
  0.00000000E+00  0.00000000E+00  0.00000000E+00
  0.00000000E+00  0.00000000E+00  0.00000000E+00
  0.00000000E+00  0.00000000E+00  0.00000000E+00
  0.00000000E+00  0.00000000E+00  0.00000000E+00
  0.00000000E+00  0.00000000E+00  0.00000000E+00
  0.00000000E+00  0.00000000E+00  0.00000000E+00
  0.00000000E+00  0.00000000E+00  0.00000000E+00
  0.00000000E+00  0.00000000E+00  0.00000000E+00
  0.00000000E+00  0.00000000E+00  0.00000000E+00
  0.00000000E+00  0.00000000E+00  0.00000000E+00
  0.00000000E+00  0.00000000E+00  0.00000000E+00
  0.00000000E+00  0.00000000E+00  0.00000000E+00
  0.00000000E+00  0.00000000E+00  0.00000000E+00
  0.00000000E+00  0.00000000E+00  0.00000000E+00
  0.00000000E+00  0.00000000E+00  0.00000000E+00
  0.00000000E+00  0.00000000E+00  0.00000000E+00
