generated by phonopy                    
   1.00000000000000     
    15.6250000000000000    0.0000000000000000    0.0000000000000000
    -7.8125000000000000   13.5316469339999994    0.0000000000000000
     0.0000000000000000    0.0000000000000000   20.0000000000000000
   Mo   S    Pt
    25    50     1
Direct
  0.0666430976556194  0.1334110217010193  0.1859853407020772
  0.2667679218453989  0.1334110217010193  0.1859853407020772
  0.4666569319470557  0.1333206179264219  0.1859805509210189
  0.6666666587999970  0.1333333198000020  0.1859882199661702
  0.8666636837793654  0.1333206179264219  0.1859805509210189
  0.0666978860967500  0.3333489334483714  0.1860442914371946
  0.2663391752767520  0.3326783527535049  0.1861185743407607
  0.4666510451516276  0.3333489334483714  0.1860442914371946
  0.6666793606735770  0.3333430466529433  0.1859805509210189
  0.8666636837793654  0.3333430466529433  0.1859805509210189
  0.0666430976556194  0.5332320567545999  0.1859853407020772
  0.2663391752767520  0.5336608033232469  0.1861185743407607
  0.4673216258464941  0.5336608033232469  0.1861185743407607
  0.6665889568989797  0.5332320567545999  0.1859853407020772
  0.8666796272608068  0.5333592567216143  0.1859770542419946
  0.0666638963544104  0.7333360822455957  0.1859784238715944
  0.2667679218453989  0.7333568809443867  0.1859853407020772
  0.4666510451516276  0.7333020925032561  0.1860442914371946
  0.6665889568989797  0.7333568809443867  0.1859853407020772
  0.8666721836911844  0.7333360822455957  0.1859784238715944
  0.0666638963544104  0.9333277949088146  0.1859784238715944
  0.2666407218783846  0.9333203513391921  0.1859770542419946
  0.4666569319470557  0.9333362948206335  0.1859805509210189
  0.6666793606735770  0.9333362948206335  0.1859805509210189
  0.8666796272608068  0.9333203513391921  0.1859770542419946
  0.1333433864827009  0.0666867579653941  0.1068751846315471
  0.3333368262495566  0.0666718054753637  0.1069026150846182
  0.5333345943759874  0.0666672882879919  0.1068907628003313
  0.7333327089120050  0.0666672882879919  0.1068907628003313
  0.9333349942258076  0.0666718054753637  0.1069026150846182
  0.1332650786169597  0.2666469538612886  0.1068580926618577
  0.3333818902443293  0.2666469538612886  0.1068580926618577
  0.5333299880657374  0.2666700091342666  0.1068810846745141
  0.7333327089120050  0.2666654028240166  0.1068907628003313
  0.9333400360685297  0.2666700091342666  0.1068810846745141
  0.1332650786169597  0.4666181069556676  0.1068580926618577
  0.3333333373999992  0.4666666597999978  0.1069927159006372
  0.5333530433387155  0.4666181069556676  0.1068580926618577
  0.7333281917246331  0.4666631709504403  0.1069026150846182
  0.9333349942258076  0.4666631709504403  0.1069026150846182
  0.1333433864827009  0.6666566107173032  0.1068751846315471
  0.3333818902443293  0.6667349185830443  0.1068580926618577
  0.5333530433387155  0.6667349185830443  0.1068580926618577
  0.7333132392346028  0.6666566107173032  0.1068751846315471
  0.9333317132021429  0.6666634114042853  0.1068941334789083
  0.1333365857957187  0.8666682839978611  0.1068941334789083
  0.3333368262495566  0.8666650029741965  0.1069026150846182
  0.5333299880657374  0.8666599611314744  0.1068810846745141
  0.7333281917246331  0.8666650029741965  0.1069026150846182
  0.9333317132021429  0.8666682839978611  0.1068941334789083
  0.1333394289825234  0.0666788429650392  0.2651159082729106
  0.3333449737992199  0.0666621653402156  0.2650832287139701
  0.5333369998848420  0.0666684910424191  0.2650900643098558
  0.7333315061575778  0.0666684910424191  0.2650900643098558
  0.9333172065409961  0.0666621653402156  0.2650832287139701
  0.1334363544051922  0.2667170119564719  0.2651131366723304
  0.3332806725512801  0.2667170119564719  0.2651131366723304
  0.5333249961647215  0.2666750010352826  0.2651102482410908
  0.7333315061575778  0.2666629973151622  0.2650900643098558
  0.9333500198705617  0.2666750010352826  0.2651102482410908
  0.1334363544051922  0.4667193246487168  0.2651131366723304
  0.3333333373999992  0.4666666597999978  0.2695951224778522
  0.5332829852435322  0.4667193246487168  0.2651131366723304
  0.7333378318597813  0.4666550234007770  0.2650832287139701
  0.9333172065409961  0.4666550234007770  0.2650832287139701
  0.1333394289825234  0.6666605682174807  0.2651159082729106
  0.3332806725512801  0.6665636427948118  0.2651131366723304
  0.5332829852435322  0.6665636427948118  0.2651131366723304
  0.7333211542349577  0.6666605682174807  0.2651159082729106
  0.9333305149798896  0.6666610149597787  0.2650868398126870
  0.1333389822402254  0.8666694822201144  0.2650868398126870
  0.3333449737992199  0.8666827906590079  0.2650832287139701
  0.5333249961647215  0.8666499773294424  0.2651102482410908
  0.7333378318597813  0.8666827906590079  0.2650832287139701
  0.9333305149798896  0.8666694822201144  0.2650868398126870
  0.3333333373999992  0.4666666597999978  0.3748323426299364
 
  0.00000000E+00  0.00000000E+00  0.00000000E+00
  0.00000000E+00  0.00000000E+00  0.00000000E+00
  0.00000000E+00  0.00000000E+00  0.00000000E+00
  0.00000000E+00  0.00000000E+00  0.00000000E+00
  0.00000000E+00  0.00000000E+00  0.00000000E+00
  0.00000000E+00  0.00000000E+00  0.00000000E+00
  0.00000000E+00  0.00000000E+00  0.00000000E+00
  0.00000000E+00  0.00000000E+00  0.00000000E+00
  0.00000000E+00  0.00000000E+00  0.00000000E+00
  0.00000000E+00  0.00000000E+00  0.00000000E+00
  0.00000000E+00  0.00000000E+00  0.00000000E+00
  0.00000000E+00  0.00000000E+00  0.00000000E+00
  0.00000000E+00  0.00000000E+00  0.00000000E+00
  0.00000000E+00  0.00000000E+00  0.00000000E+00
  0.00000000E+00  0.00000000E+00  0.00000000E+00
  0.00000000E+00  0.00000000E+00  0.00000000E+00
  0.00000000E+00  0.00000000E+00  0.00000000E+00
  0.00000000E+00  0.00000000E+00  0.00000000E+00
  0.00000000E+00  0.00000000E+00  0.00000000E+00
  0.00000000E+00  0.00000000E+00  0.00000000E+00
  0.00000000E+00  0.00000000E+00  0.00000000E+00
  0.00000000E+00  0.00000000E+00  0.00000000E+00
  0.00000000E+00  0.00000000E+00  0.00000000E+00
  0.00000000E+00  0.00000000E+00  0.00000000E+00
  0.00000000E+00  0.00000000E+00  0.00000000E+00
  0.00000000E+00  0.00000000E+00  0.00000000E+00
  0.00000000E+00  0.00000000E+00  0.00000000E+00
  0.00000000E+00  0.00000000E+00  0.00000000E+00
  0.00000000E+00  0.00000000E+00  0.00000000E+00
  0.00000000E+00  0.00000000E+00  0.00000000E+00
  0.00000000E+00  0.00000000E+00  0.00000000E+00
  0.00000000E+00  0.00000000E+00  0.00000000E+00
  0.00000000E+00  0.00000000E+00  0.00000000E+00
  0.00000000E+00  0.00000000E+00  0.00000000E+00
  0.00000000E+00  0.00000000E+00  0.00000000E+00
  0.00000000E+00  0.00000000E+00  0.00000000E+00
  0.00000000E+00  0.00000000E+00  0.00000000E+00
  0.00000000E+00  0.00000000E+00  0.00000000E+00
  0.00000000E+00  0.00000000E+00  0.00000000E+00
  0.00000000E+00  0.00000000E+00  0.00000000E+00
  0.00000000E+00  0.00000000E+00  0.00000000E+00
  0.00000000E+00  0.00000000E+00  0.00000000E+00
  0.00000000E+00  0.00000000E+00  0.00000000E+00
  0.00000000E+00  0.00000000E+00  0.00000000E+00
  0.00000000E+00  0.00000000E+00  0.00000000E+00
  0.00000000E+00  0.00000000E+00  0.00000000E+00
  0.00000000E+00  0.00000000E+00  0.00000000E+00
  0.00000000E+00  0.00000000E+00  0.00000000E+00
  0.00000000E+00  0.00000000E+00  0.00000000E+00
  0.00000000E+00  0.00000000E+00  0.00000000E+00
  0.00000000E+00  0.00000000E+00  0.00000000E+00
  0.00000000E+00  0.00000000E+00  0.00000000E+00
  0.00000000E+00  0.00000000E+00  0.00000000E+00
  0.00000000E+00  0.00000000E+00  0.00000000E+00
  0.00000000E+00  0.00000000E+00  0.00000000E+00
  0.00000000E+00  0.00000000E+00  0.00000000E+00
  0.00000000E+00  0.00000000E+00  0.00000000E+00
  0.00000000E+00  0.00000000E+00  0.00000000E+00
  0.00000000E+00  0.00000000E+00  0.00000000E+00
  0.00000000E+00  0.00000000E+00  0.00000000E+00
  0.00000000E+00  0.00000000E+00  0.00000000E+00
  0.00000000E+00  0.00000000E+00  0.00000000E+00
  0.00000000E+00  0.00000000E+00  0.00000000E+00
  0.00000000E+00  0.00000000E+00  0.00000000E+00
  0.00000000E+00  0.00000000E+00  0.00000000E+00
  0.00000000E+00  0.00000000E+00  0.00000000E+00
  0.00000000E+00  0.00000000E+00  0.00000000E+00
  0.00000000E+00  0.00000000E+00  0.00000000E+00
  0.00000000E+00  0.00000000E+00  0.00000000E+00
  0.00000000E+00  0.00000000E+00  0.00000000E+00
  0.00000000E+00  0.00000000E+00  0.00000000E+00
  0.00000000E+00  0.00000000E+00  0.00000000E+00
  0.00000000E+00  0.00000000E+00  0.00000000E+00
  0.00000000E+00  0.00000000E+00  0.00000000E+00
  0.00000000E+00  0.00000000E+00  0.00000000E+00
  0.00000000E+00  0.00000000E+00  0.00000000E+00
